96 1
426
689
709
779
782
798
893
896
897
921
923
925
940
967
973
1080
1083
1181
1217
1336
1531
1636
1637
1639
1644
1653
1704
1712
1732
1737
1739
1799
1842
1894
1993
2056
2272
2372
2394
2395
2407
2416
2458
2460
2465
2466
2470
2477
2502
2506
2848
2977
3004
3005
3029
3078
3187
3218
3223
3244
3325
3329
3347
3437
3457
3458
3569
3626
3629
3760
3850
3871
3885
3929
3938
4091
4092
4153
4155
4156
4157
4376
4401
4620
4705
4724
4795
5125
6302
6849
6866
6950
6989
7760
7892
7983
